NAME: example58
TYPE: TSP
COMMENT: example with 6 nodes
DIMENSION : 6
NUMBER_OF_MATRIXES : 3
EDGE_WEIGHT_TYPE: EXPLICIT
EDGE_WEIGHT_FORMAT: FULL_MATRIX
DISPLAY_DATA_TYPE: TWOD_DISPLAY
EDGE_MULTI_WEIGHT_SECTION
70
0 10 100 100 10 100
10 0 10 100 100 100
100 10 0 10 100 100
100 100 10 0 100 10
10 100 100 100 0 100
100 100 100 10 100 0

20
0 10 10 100 100 100
10 0 100 10 100 100
10 100 0 100 100 100
100 10 100 0 10 100
100 100 100 10 0 10
100 100 100 100 10 0

30
0 100 10 100 10 100
100 0 100 100 10 100
10 100 0 100 100 10
100 100 100 0 100 10
10 10 100 100 0 100
100 100 10 10 100 0

DISPLAY_DATA_SECTION
1 60 50
2 130 140
3 50 130
4 160 100
5 120 0
6 120 50